(set-logic QF_UF)
(declare-fun A0 () Bool)
(declare-fun A1 () Bool)
(declare-fun A2 () Bool)
(declare-fun A3 () Bool)
(declare-fun A4 () Bool)
(declare-fun A5 () Bool)
(declare-fun A6 () Bool)
(declare-fun A7 () Bool)
(declare-fun A8 () Bool)
(declare-fun A9 () Bool)
(declare-fun A11 () Bool)
(declare-fun A12 () Bool)
(declare-fun A13 () Bool)
(declare-fun A14 () Bool)
(declare-fun A15 () Bool)
(declare-fun A16 () Bool)
(declare-fun A17 () Bool)
(declare-fun A18 () Bool)
(declare-fun A19 () Bool)
(declare-fun A21 () Bool)
(declare-fun A22 () Bool)
(declare-fun A23 () Bool)
(declare-fun A24 () Bool)
(declare-fun A25 () Bool)
(declare-fun A27 () Bool)
(declare-fun A28 () Bool)
(declare-fun A29 () Bool)
(assert (let ((.def_0 (and A19 A27))) (let ((.def_1 (not .def_0))) (let ((.def_2 (and A11 A22))) (let ((.def_3 (or .def_2 .def_1))) (let ((.def_4 (not .def_3))) (let ((.def_5 (not A13))) (let ((.def_6 (and A27 .def_5))) (let ((.def_7 (not .def_6))) (let ((.def_8 (not A9))) (let ((.def_9 (and A16 .def_8))) (let ((.def_10 (or .def_9 .def_7))) (let ((.def_11 (or .def_10 .def_4))) (let ((.def_12 (not A23))) (let ((.def_13 (not A18))) (let ((.def_14 (and .def_13 .def_12))) (let ((.def_15 (not A14))) (let ((.def_16 (= .def_15 A21))) (let ((.def_17 (or .def_16 .def_14))) (let ((.def_18 (not .def_17))) (let ((.def_19 (not A17))) (let ((.def_20 (or .def_19 .def_8))) (let ((.def_21 (or A18 .def_13))) (let ((.def_22 (not .def_21))) (let ((.def_23 (or .def_22 .def_20))) (let ((.def_24 (or .def_23 .def_18))) (let ((.def_25 (or .def_24 .def_11))) (let ((.def_26 (not .def_25))) (let ((.def_27 (not A5))) (let ((.def_28 (not A3))) (let ((.def_29 (and .def_28 .def_27))) (let ((.def_30 (or A15 A2))) (let ((.def_31 (and .def_30 .def_29))) (let ((.def_32 (not .def_31))) (let ((.def_33 (not A4))) (let ((.def_34 (not A24))) (let ((.def_35 (or .def_34 .def_33))) (let ((.def_36 (not A28))) (let ((.def_37 (or .def_36 A15))) (let ((.def_38 (not .def_37))) (let ((.def_39 (or .def_38 .def_35))) (let ((.def_40 (not .def_39))) (let ((.def_41 (or .def_40 .def_32))) (let ((.def_42 (not A0))) (let ((.def_43 (not A7))) (let ((.def_44 (or .def_43 .def_42))) (let ((.def_45 (not .def_44))) (let ((.def_46 (or A19 .def_8))) (let ((.def_47 (or .def_46 .def_45))) (let ((.def_48 (not .def_47))) (let ((.def_49 (or .def_8 A8))) (let ((.def_50 (and A5 .def_33))) (let ((.def_51 (not .def_50))) (let ((.def_52 (or .def_51 .def_49))) (let ((.def_53 (not .def_52))) (let ((.def_54 (or .def_53 .def_48))) (let ((.def_55 (and .def_54 .def_41))) (let ((.def_56 (and .def_55 .def_26))) (let ((.def_57 (not .def_56))) (let ((.def_58 (not A22))) (let ((.def_59 (or A12 .def_58))) (let ((.def_60 (not A25))) (let ((.def_61 (= .def_60 A5))) (let ((.def_62 (= .def_61 .def_59))) (let ((.def_63 (not A8))) (let ((.def_64 (or .def_63 .def_13))) (let ((.def_65 (not .def_64))) (let ((.def_66 (or A11 .def_28))) (let ((.def_67 (not .def_66))) (let ((.def_68 (or .def_67 .def_65))) (let ((.def_69 (not .def_68))) (let ((.def_70 (or .def_69 .def_62))) (let ((.def_71 (and .def_60 A0))) (let ((.def_72 (or A15 A6))) (let ((.def_73 (or .def_72 .def_71))) (let ((.def_74 (not .def_73))) (let ((.def_75 (or A16 A5))) (let ((.def_76 (or .def_36 A6))) (let ((.def_77 (not .def_76))) (let ((.def_78 (or .def_77 .def_75))) (let ((.def_79 (not .def_78))) (let ((.def_80 (or .def_79 .def_74))) (let ((.def_81 (or .def_80 .def_70))) (let ((.def_82 (and .def_43 A22))) (let ((.def_83 (not A29))) (let ((.def_84 (and .def_83 .def_19))) (let ((.def_85 (not .def_84))) (let ((.def_86 (and .def_85 .def_82))) (let ((.def_87 (not .def_86))) (let ((.def_88 (not A6))) (let ((.def_89 (or .def_88 .def_5))) (let ((.def_90 (and .def_42 A11))) (let ((.def_91 (not .def_90))) (let ((.def_92 (and .def_91 .def_89))) (let ((.def_93 (= .def_92 .def_87))) (let ((.def_94 (or A2 .def_8))) (let ((.def_95 (not .def_94))) (let ((.def_96 (or A29 .def_19))) (let ((.def_97 (and .def_96 .def_95))) (let ((.def_98 (and A28 .def_43))) (let ((.def_99 (and .def_58 A1))) (let ((.def_100 (not .def_99))) (let ((.def_101 (and .def_100 .def_98))) (let ((.def_102 (not .def_101))) (let ((.def_103 (or .def_102 .def_97))) (let ((.def_104 (not .def_103))) (let ((.def_105 (or .def_104 .def_93))) (let ((.def_106 (not .def_105))) (let ((.def_107 (and .def_106 .def_81))) (let ((.def_108 (or .def_107 .def_57))) (let ((.def_109 (not .def_108))) .def_109)))))))))))))))))))))))))))))))))))))))))))))))))))))))))))))))))))))))))))))))))))))))))))))))))))))))))))))))
(check-sat)
